webassembly/ejemplos_dzn/folder8_json_9.dzn
TERM = { '.', 's(2)', 'local_1', 's(1)', 's(0)', 'in_0'};
null = '.';
s = 8;
n = 10;
ndeps = 0;
max_registers_sz = 4;
NR = 1;
registers = [|'local_1', 's(2)'|];
dependencies = [| |];
GET_ENUM = { GET1, GET2, GET3, GET4, GET5};
SET_ENUM = { SET1, SET2, SET3, SET4, SET5};
TEE_ENUM = { TEE1, TEE2, TEE3, TEE4, TEE5};
N = 3;
OP = { 'i32.const_0', 'i32.load8_u_0', 'i32.load16_s_7' };
in_ops = [0, 1, 1 ];
out_ops = [1, 1, 1 ];
in1 = ['.', 'in_0', 's(2)' ];
in2 = ['.', '.', '.' ];
in3 = ['.', '.', '.' ];
out1 = ['s(2)', 's(0)', 's(1)' ];
out2 = ['.', '.', '.' ];
out3 = ['.', '.', '.' ];
comm = [false, false, false ];
gas = [1, 1, 1 ];
sz = [1, 1, 1 ];
stor = [false, false, false ];
lb = [ 1, 1, 1 ];
ub = [ 8, 8, 8 ];
startstack = [ 'in_0', null, null, null, null, null, null, null, null, null ];
endstack = [ 's(1)', 's(2)', 's(2)', 'local_1', 's(0)', null, null, null, null, null ];
