webassembly/ejemplos_results/folder8_json_9.txt
value = 8;
fgas = [1, 1, 1, 1, 1, 1, 1, 2];
fsize = [1, 1, 1, 1, 1, 1, 1, 1];
states = 
[|   in_0,     '.',     '.',     '.',     '.',    '.', '.', '.', '.', '.'
 | 's(0)',  's(0)',     '.',     '.',     '.',    '.', '.', '.', '.', '.'
 | 's(2)',    in_0,  's(0)',     '.',     '.',    '.', '.', '.', '.', '.'
 | 's(1)', local_1,  's(0)',     '.',     '.',    '.', '.', '.', '.', '.'
 | 's(2)',  's(2)', local_1,  's(0)',     '.',    '.', '.', '.', '.', '.'
 | 's(2)',  's(2)',  's(2)', local_1,  's(0)',    '.', '.', '.', '.', '.'
 | 's(2)',  's(1)',  's(2)',  's(2)', local_1, 's(0)', '.', '.', '.', '.'
 | 's(2)',  's(1)',  's(2)',  's(2)', local_1, 's(0)', '.', '.', '.', '.'
 | 's(1)',  's(2)',  's(2)', local_1,  's(0)',    '.', '.', '.', '.', '.'
 |];
register_states = 
[| local_1, '.', '.', '.', '.'
 | local_1, '.', '.', '.', '.'
 | local_1, '.', '.', '.', '.'
 | local_1, '.', '.', '.', '.'
 | local_1, '.', '.', '.', '.'
 | local_1, '.', '.', '.', '.'
 | local_1, '.', '.', '.', '.'
 |  's(2)', '.', '.', '.', '.'
 |  's(2)', '.', '.', '.', '.'
 |];
program = [O('i32.load8_u_0'), O('i32.const_0'), O('i32.load16_s_7'), O('i32.const_0'), O('i32.const_0'), O('i32.const_0'), TEE(TEE1), POP];
% time elapsed: 0.07 s
----------
value = 7;
fgas = [1, 1, 1, 1, 1, 1, 1, 0];
fsize = [1, 1, 1, 1, 1, 1, 1, 1];
states = 
[|   in_0,     '.',     '.',     '.',    '.', '.', '.', '.', '.',  '.'
 | 's(0)',  's(0)',     '.',     '.',    '.', '.', '.', '.', '.',  '.'
 | 's(2)',    in_0,  's(0)',     '.',    '.', '.', '.', '.', '.',  '.'
 | 's(1)', local_1,  's(0)',     '.',    '.', '.', '.', '.', '.',  '.'
 | 's(2)',  's(2)', local_1,  's(0)',    '.', '.', '.', '.', '.',  '.'
 | 's(2)',  's(2)', local_1,  's(0)',    '.', '.', '.', '.', '.', in_0
 | 's(2)', local_1,  's(2)', local_1, 's(0)', '.', '.', '.', '.',  '.'
 | 's(1)',  's(2)',  's(2)', local_1, 's(0)', '.', '.', '.', '.',  '.'
 | 's(1)',  's(2)',  's(2)', local_1, 's(0)', '.', '.', '.', '.',  '.'
 |];
register_states = 
[| local_1, '.', '.', '.', '.'
 | local_1, '.', '.', '.', '.'
 | local_1, '.', '.', '.', '.'
 | local_1, '.', '.', '.', '.'
 | local_1, '.', '.', '.', '.'
 |  's(2)', '.', '.', '.', '.'
 |  's(2)', '.', '.', '.', '.'
 |  's(2)', '.', '.', '.', '.'
 |  's(2)', '.', '.', '.', '.'
 |];
program = [O('i32.load8_u_0'), O('i32.const_0'), O('i32.load16_s_7'), O('i32.const_0'), TEE(TEE1), O('i32.const_0'), O('i32.load16_s_7'), NOP];
% time elapsed: 0.07 s
----------
value = 6;
fgas = [1, 1, 1, 1, 1, 1, 0, 0];
fsize = [1, 1, 1, 1, 1, 1, 1, 1];
states = 
[|   in_0,     '.',     '.',     '.',    '.', '.', '.', '.', '.', '.'
 | 's(0)',  's(0)',     '.',     '.',    '.', '.', '.', '.', '.', '.'
 | 's(2)', local_1,  's(0)',     '.',    '.', '.', '.', '.', '.', '.'
 | 's(2)',  's(2)', local_1,  's(0)',    '.', '.', '.', '.', '.', '.'
 | 's(2)',    in_0,  's(2)', local_1, 's(0)', '.', '.', '.', '.', '.'
 | 's(2)',    in_0,  's(2)', local_1, 's(0)', '.', '.', '.', '.', '.'
 | 's(1)',  's(2)',  's(2)', local_1, 's(0)', '.', '.', '.', '.', '.'
 | 's(1)',  's(2)',  's(2)', local_1, 's(0)', '.', '.', '.', '.', '.'
 | 's(1)',  's(2)',  's(2)', local_1, 's(0)', '.', '.', '.', '.', '.'
 |];
register_states = 
[| local_1, '.', '.', '.', '.'
 | local_1, '.', '.', '.', '.'
 | local_1, '.', '.', '.', '.'
 | local_1, '.', '.', '.', '.'
 | local_1, '.', '.', '.', '.'
 |  's(2)', '.', '.', '.', '.'
 |  's(2)', '.', '.', '.', '.'
 |  's(2)', '.', '.', '.', '.'
 |  's(2)', '.', '.', '.', '.'
 |];
program = [O('i32.load8_u_0'), O('i32.const_0'), O('i32.const_0'), O('i32.const_0'), TEE(TEE1), O('i32.load16_s_7'), NOP, NOP];
% time elapsed: 0.07 s
----------
==========
% time elapsed: 0.07 s
% [value > 5]
